Gurobi 12.0.3:   lim:time = 14400

  mip:bestbound = 1

Set parameter LogToConsole to value 1

  tech:outlev = 1

Set parameter Cuts to value 3

  cut:cuts = 3

Set parameter Presolve to value 2

  pre:solve = 2

Set parameter MIPFocus to value 2

  mip:focus = 2

Set parameter Symmetry to value 2

  mip:symmetry = 2

Set parameter InfUnbdInfo to value 1

Gurobi Optimizer version 12.0.3 build v12.0.3rc0 (win64 - Windows 10.0 (19045.2))



CPU model: Intel(R) Core(TM) i7-10700 CPU @ 2.90GHz, instruction set [SSE2|AVX|AVX2]

Thread count: 8 physical cores, 16 logical processors, using up to 16 threads



Non-default parameters:

TimeLimit  14400

MIPFocus  2

Symmetry  2

Cuts  3

InfUnbdInfo  1

Presolve  2



Optimize a model with 442 rows, 1029 columns and 5883 nonzeros

Model fingerprint: 0xa14aae02

Model has 4 quadratic objective terms

Model has 10 quadratic constraints

Variable types: 38 continuous, 991 integer (0 binary)

Coefficient statistics:

  Matrix range     [1e+00, 1e+05]

  QMatrix range    [1e+00, 1e+00]

  QLMatrix range   [1e+00, 1e+01]

  Objective range  [3e+00, 1e+02]

  QObjective range [2e+00, 2e+00]

  Bounds range     [1e+00, 1e+02]

  RHS range        [1e+00, 1e+05]

  QRHS range       [1e+02, 1e+02]

Presolve removed 25 rows and 107 columns

Presolve time: 0.32s

Presolved: 1080 rows, 1518 columns, 9247 nonzeros

Variable types: 237 continuous, 1281 integer (1168 binary)

Root relaxation presolve removed 21 rows and 0 columns

Root relaxation presolved: 727 rows, 1245 columns, 11061 nonzeros





Root relaxation: objective 8.889703e+01, 168 iterations, 0.01 seconds (0.01 work units)



    Nodes    |    Current Node    |     Objective Bounds      |     Work

 Expl Unexpl |  Obj  Depth IntInf | Incumbent    BestBd   Gap | It/Node Time



     0     0   88.89703    0   45          -   88.89703      -     -    0s

H    0     0                     469.6300000   90.42525  80.7%     -    0s

     0     0  147.83149    0   52  469.63000  147.83149  68.5%     -    0s

     0     0  147.83149    0   52  469.63000  147.83149  68.5%     -    0s

H    0     0                     444.9200000  147.83149  66.8%     -    0s

H    0     0                     435.8600000  147.83149  66.1%     -    0s

H    0     0                     390.9200000  147.83149  62.2%     -    0s

H    0     0                     323.1600000  147.83149  54.3%     -    0s

     0     0  150.25150    0   78  323.16000  150.25150  53.5%     -    0s

     0     0  150.25150    0   61  323.16000  150.25150  53.5%     -    1s

H    0     0                     321.8900000  150.33710  53.3%     -    1s

H    0     0                     321.7100000  150.33710  53.3%     -    1s

H    0     0                     321.2100000  150.33710  53.2%     -    1s

H    0     0                     320.4500000  150.33710  53.1%     -    1s

     0     0  154.16069    0   68  320.45000  154.16069  51.9%     -    1s

     0     0  159.12476    0   82  320.45000  159.12476  50.3%     -    1s

     0     0  161.37787    0   95  320.45000  161.37787  49.6%     -    1s

     0     0  162.62244    0   92  320.45000  162.62244  49.3%     -    1s

H    0     0                     317.4800000  162.62244  48.8%     -    1s

     0     0  172.33834    0   88  317.48000  172.33834  45.7%     -    2s

     0     0  172.33834    0   87  317.48000  172.33834  45.7%     -    2s

     0     2  172.34051    0   81  317.48000  172.34051  45.7%     -    2s

H   54    56                     316.3400000  174.80000  44.7%  42.3    2s

H  179   145                     302.3700000  175.04028  42.1%  26.4    2s

  2876  1199  215.35836   20  124  302.37000  192.14816  36.5%  18.2    5s

H 2906  1157                     299.2600000  192.14816  35.8%  18.0    8s

H 2911  1101                     299.0500000  192.14816  35.7%  17.9    8s

H 2914  1047                     296.9900000  192.14816  35.3%  17.9    8s

H 2920   997                     296.7800000  197.12500  33.6%  17.9    9s

H 2920   946                     296.1300000  197.12500  33.4%  17.9    9s

H 2929   903                     295.9500000  205.88803  30.4%  17.8    9s

H 2929   857                     295.4000000  205.88803  30.3%  17.8    9s

  2933   860  267.16682   24  177  295.40000  207.15125  29.9%  17.8   10s

 10891  1195     cutoff   39       295.40000  255.54136  13.5%  23.9   15s



Cutting planes:

  Learned: 3

  Gomory: 14

  Lift-and-project: 8

  Cover: 25

  Implied bound: 97

  Projected implied bound: 14

  Clique: 21

  MIR: 37

  Mixing: 4

  Flow cover: 123

  GUB cover: 3

  Inf proof: 14

  Zero half: 142

  RLT: 51

  Relax-and-lift: 22



Explored 19633 nodes (407683 simplex iterations) in 17.81 seconds (14.17 work units)

Thread count was 16 (of 16 available processors)



Solution count 10: 295.4 295.95 296.13 ... 317.48



Optimal solution found (tolerance 1.00e-04)

Best objective 2.954000000000e+02, best bound 2.954000000000e+02, gap 0.0000%



AMPL MP initial flat model has 1029 variables (0 integer, 991 binary);

Objectives: 1 quadratic; 

Constraints:  442 linear; 10 quadratic;



AMPL MP final model has 1029 variables (0 integer, 991 binary);

Objectives: 1 quadratic; 

Constraints:  442 linear; 10 quadratic;





-----RESULTS INFO-----
running_time:  17.844
TC.best_bound:  295.4
TC:  295.3999999999999
MIP Gap (%):  1.9242863527693985e-14
=== Vehicle Routes ===
Vehicle 1: 0 → 1
Vehicle 1: 1 → 15
Vehicle 1: 3 → 19
Vehicle 1: 12 → 3
Vehicle 1: 15 → 18
Vehicle 1: 18 → 12
Vehicle 2: 0 → 2
Vehicle 2: 2 → 16
Vehicle 2: 16 → 19
Vehicle 3: 0 → 19
Vehicle 4: 0 → 19

=== Full Vehicle Routes ===
Vehicle 1: 0 → 1 → 15 → 18 → 12 → 3 → 0 (94<100)
Vehicle 2: 0 → 2 → 16 → 0 (59<100)
Vehicle 3: 0 → 0 (0<100)
Vehicle 4: 0 → 0 (0<100)
Arc used by MRT line: y variables:
MRT used: 12 → 13
MRT used: 15 → 14
MRT used: 16 → 17
Customer assigment to PL: u variables:
4 17
5 14
6 17
7 17
8 18
9 15
10 13
11 17
Node is served by regular vehicle: g variables:
1
2
3
18
12
15
16
Customer assigment to Home delivery: gm variables:
1
2
3
Node total demands: ntd variables:
1 13 1
2 13 1
3 12 1
8 0 0
9 0 0
10 0 0
11 0 0
18 23 1
12 12 1
13 0 0
14 0 0
15 34 1
16 46 1
17 0 0
Customer's demand delivered to PL: l variables:
4
5
6
7
8
9
10
11
Lockers load <= capacity:
23 <= 79
0 <= 81
12 <= 83
24 <= 100
10 <= 99
0 <= 94
46 <= 86
